stage = A;
SUITOR = { S1, S2, S3 };
LiuBei = S1;
n = 2 + 2 + 2 ;
suitor = [ S1, S1, S2, S2, S3, S3 ];

mintime = [|  1, 2, 3
           |  2, 2, 1
           |  3, 3, 3 |];
 
%  --> room red, gold,  blue
maxtime = [| 2,  3,     4      % liu bei S1
           | 2,  4,     3      % S2
           | 3,  4,     3 |];  % S3

move = [|  0, 1, 1
        |  1, 0, 2
        |  1, 2, 0 |];
%move = [|  0, 0, 0
%        |  0, 0, 0
%        |  0, 0, 0 |];
 
ndays = 2;
earliest = 8;
latest = 18;

lessontime = 1;
minsep = 2;

usedstart = [ 10, 12, 14 ];
useddur   = [ 1, 2, 1 ];

